! Simple input file for a single helium atom
! Uses external basis set
! Blank lines before 'He 2.0' and final $END are important

!  STO-3G  EMSL  Basis Set Exchange Library   7/14/16 3:29 PM
! Elements                             References
! --------                             ----------
!  H - Ne: W.J. Hehre, R.F. Stewart and J.A. Pople, J. Chem. Phys. 2657 (1969).
! Na - Ar: W.J. Hehre, R. Ditchfield, R.F. Stewart, J.A. Pople,
!          J. Chem. Phys.  2769 (1970).
! K,Ca - : W.J. Pietro, B.A. Levy, W.J. Hehre and R.F. Stewart,
! Ga - Kr: J. Am. Chem. Soc. 19, 2225 (1980).
! Sc - Zn: W.J. Pietro and W.J. Hehre, J. Comp. Chem. 4, 241 (1983) + Gaussian.
!  Y - Cd: W.J. Pietro and W.J. Hehre, J. Comp. Chem. 4, 241 (1983). + Gaussian
!   

 ! Default method is RHF
 $CONTRL UNITS=bohr RUNTYP=Energy ISPHER=1 $END

 $DATA
Helium atom
Dnh 2

He 2.0
S   3
  1      6.36242139             0.15432897       
  2      1.15892300             0.53532814       
  3      0.31364979             0.44463454       

$END

